# Solution for model JobShopModel
# Objective value = 34
y[0,0,3] 1
y[0,0,5] 0
y[0,1,0] 1
y[0,1,2] 0
y[0,2,3] 0
y[0,2,4] 1
y[1,0,2] 1
y[1,0,3] 0
y[1,1,2] 0
y[1,1,3] 1
y[1,2,1] 1
y[1,2,4] 0
y[2,0,1] 0
y[2,0,4] 1
y[2,1,1] 0
y[2,1,2] 1
y[2,2,0] 1
y[2,2,4] 0
y[3,0,2] 1
y[3,0,4] 0
y[3,1,4] 0
y[3,1,5] 1
y[3,2,1] 1
y[3,2,2] 0
y[4,0,0] 1
y[4,0,5] 0
y[4,1,2] 0
y[4,1,5] 1
y[4,2,3] 1
y[4,2,4] 0
x[0,0,0,0] 0
x[0,0,0,1] 0
x[0,0,0,2] 1
x[0,0,1,0] 1
x[0,0,1,1] 1
x[0,0,1,2] 0
x[0,0,2,0] 0
x[0,0,2,1] 0
x[0,0,2,2] 0
x[0,0,3,0] 0
x[0,0,3,1] 1
x[0,0,3,2] 0
x[0,0,4,0] 1
x[0,0,4,1] 0
x[0,0,4,2] 1
x[0,1,0,0] 0
x[0,1,0,1] 0
x[0,1,0,2] 0
x[0,1,1,0] 0
x[0,1,1,1] 0
x[0,1,1,2] 0
x[0,1,2,0] 0
x[0,1,2,1] 0
x[0,1,2,2] 1
x[0,1,3,0] 1
x[0,1,3,1] 0
x[0,1,3,2] 0
x[0,1,4,0] 1
x[0,1,4,1] 0
x[0,1,4,2] 0
x[0,2,0,0] 0
x[0,2,0,1] 0
x[0,2,0,2] 0
x[0,2,1,0] 0
x[0,2,1,1] 0
x[0,2,1,2] 1
x[0,2,2,0] 1
x[0,2,2,1] 0
x[0,2,2,2] 0
x[0,2,3,0] 0
x[0,2,3,1] 1
x[0,2,3,2] 0
x[0,2,4,0] 0
x[0,2,4,1] 0
x[0,2,4,2] 0
x[1,0,0,0] 0
x[1,0,0,1] 0
x[1,0,0,2] 0
x[1,0,1,0] 0
x[1,0,1,1] 1
x[1,0,1,2] 0
x[1,0,2,0] 0
x[1,0,2,1] 1
x[1,0,2,2] 0
x[1,0,3,0] 1
x[1,0,3,1] 0
x[1,0,3,2] 0
x[1,0,4,0] 0
x[1,0,4,1] 0
x[1,0,4,2] 1
x[1,1,0,0] 0
x[1,1,0,1] 0
x[1,1,0,2] 0
x[1,1,1,0] 0
x[1,1,1,1] 0
x[1,1,1,2] 0
x[1,1,2,0] 0
x[1,1,2,1] 1
x[1,1,2,2] 0
x[1,1,3,0] 0
x[1,1,3,1] 0
x[1,1,3,2] 0
x[1,1,4,0] 0
x[1,1,4,1] 0
x[1,1,4,2] 1
x[1,2,0,0] 0
x[1,2,0,1] 0
x[1,2,0,2] 0
x[1,2,1,0] 0
x[1,2,1,1] 0
x[1,2,1,2] 0
x[1,2,2,0] 0
x[1,2,2,1] 1
x[1,2,2,2] 1
x[1,2,3,0] 0
x[1,2,3,1] 0
x[1,2,3,2] 1
x[1,2,4,0] 0
x[1,2,4,1] 0
x[1,2,4,2] 0
x[2,0,0,0] 0
x[2,0,0,1] 0
x[2,0,0,2] 0
x[2,0,1,0] 0
x[2,0,1,1] 0
x[2,0,1,2] 0
x[2,0,2,0] 0
x[2,0,2,1] 1
x[2,0,2,2] 1
x[2,0,3,0] 0
x[2,0,3,1] 0
x[2,0,3,2] 1
x[2,0,4,0] 0
x[2,0,4,1] 0
x[2,0,4,2] 0
x[2,1,0,0] 0
x[2,1,0,1] 0
x[2,1,0,2] 0
x[2,1,1,0] 0
x[2,1,1,1] 0
x[2,1,1,2] 0
x[2,1,2,0] 0
x[2,1,2,1] 0
x[2,1,2,2] 0
x[2,1,3,0] 0
x[2,1,3,1] 0
x[2,1,3,2] 1
x[2,1,4,0] 0
x[2,1,4,1] 0
x[2,1,4,2] 0
x[2,2,0,0] 0
x[2,2,0,1] 0
x[2,2,0,2] 0
x[2,2,1,0] 0
x[2,2,1,1] 0
x[2,2,1,2] 0
x[2,2,2,0] 0
x[2,2,2,1] 0
x[2,2,2,2] 0
x[2,2,3,0] 0
x[2,2,3,1] 1
x[2,2,3,2] 0
x[2,2,4,0] 0
x[2,2,4,1] 0
x[2,2,4,2] 0
x[3,0,0,0] 0
x[3,0,0,1] 0
x[3,0,0,2] 0
x[3,0,1,0] 0
x[3,0,1,1] 0
x[3,0,1,2] 0
x[3,0,2,0] 0
x[3,0,2,1] 0
x[3,0,2,2] 0
x[3,0,3,0] 0
x[3,0,3,1] 0
x[3,0,3,2] 0
x[3,0,4,0] 0
x[3,0,4,1] 1
x[3,0,4,2] 1
x[3,1,0,0] 0
x[3,1,0,1] 0
x[3,1,0,2] 0
x[3,1,1,0] 0
x[3,1,1,1] 0
x[3,1,1,2] 0
x[3,1,2,0] 0
x[3,1,2,1] 0
x[3,1,2,2] 0
x[3,1,3,0] 1
x[3,1,3,1] 0
x[3,1,3,2] 0
x[3,1,4,0] 0
x[3,1,4,1] 1
x[3,1,4,2] 1
x[3,2,0,0] 0
x[3,2,0,1] 0
x[3,2,0,2] 0
x[3,2,1,0] 0
x[3,2,1,1] 0
x[3,2,1,2] 0
x[3,2,2,0] 0
x[3,2,2,1] 0
x[3,2,2,2] 0
x[3,2,3,0] 0
x[3,2,3,1] 0
x[3,2,3,2] 0
x[3,2,4,0] 0
x[3,2,4,1] 0
x[3,2,4,2] 0
x[4,0,0,0] 0
x[4,0,0,1] 0
x[4,0,0,2] 0
x[4,0,1,0] 0
x[4,0,1,1] 0
x[4,0,1,2] 0
x[4,0,2,0] 0
x[4,0,2,1] 0
x[4,0,2,2] 0
x[4,0,3,0] 0
x[4,0,3,1] 0
x[4,0,3,2] 0
x[4,0,4,0] 0
x[4,0,4,1] 1
x[4,0,4,2] 0
x[4,1,0,0] 0
x[4,1,0,1] 0
x[4,1,0,2] 0
x[4,1,1,0] 0
x[4,1,1,1] 0
x[4,1,1,2] 0
x[4,1,2,0] 0
x[4,1,2,1] 0
x[4,1,2,2] 0
x[4,1,3,0] 0
x[4,1,3,1] 0
x[4,1,3,2] 0
x[4,1,4,0] 0
x[4,1,4,1] 0
x[4,1,4,2] 0
x[4,2,0,0] 0
x[4,2,0,1] 0
x[4,2,0,2] 0
x[4,2,1,0] 0
x[4,2,1,1] 0
x[4,2,1,2] 0
x[4,2,2,0] 0
x[4,2,2,1] 0
x[4,2,2,2] 0
x[4,2,3,0] 0
x[4,2,3,1] 0
x[4,2,3,2] 0
x[4,2,4,0] 0
x[4,2,4,1] 0
x[4,2,4,2] 0
s[0,0,3] 2.4999999999999588e+01
s[0,0,5] 0
s[0,1,0] 1.9999999999997858e+01
s[0,1,2] 0
s[0,2,3] 0
s[0,2,4] 1.6999999999998391e+01
s[1,0,2] 1.7000000000004405e+01
s[1,0,3] 0
s[1,1,2] 0
s[1,1,3] 1.5000000000005906e+01
s[1,2,1] 10
s[1,2,4] 0
s[2,0,1] 0
s[2,0,4] 6.9999999999988214e+00
s[2,1,1] 0
s[2,1,2] 2
s[2,2,0] 3.0000000000014331e+00
s[2,2,4] 0
s[3,0,2] 11
s[3,0,4] 0
s[3,1,4] 0
s[3,1,5] 8
s[3,2,1] 0
s[3,2,2] 0
s[4,0,0] 1.1000000000000767e+01
s[4,0,5] 0
s[4,1,2] 0
s[4,1,5] 1
s[4,2,3] 1.4262663853445001e+00
s[4,2,4] 0
Z_FO 34
C286 1
C287 0
C288 1
C289 0
C290 0
C291 1
C292 0
C293 0
C294 1
C295 0
